x = 25;
y = 17;
c = 63;
n = 70;

p = [20  12  93  85  62  81  22  38  16  70  17  32  60  12  81  81  38  52  25  77  45  40  34  64  97  61  97  85  79  23  85  76  74  17  95  29  82  91  95  30  33  23  87  19  85  60  79  29  44  91  86  33  100  87  63  98  90  68  98  74  81  11  96  28  72  15  55  31  23  51];
w = [9  5  2  5  4  1  4  9  5  5  8  4  2  6  5  2  7  2  3  3  4  10  2  4  3  9  7  6  8  6  4  9  2  7  2  1  1  3  3  2  3  7  2  1  6  1  3  3  6  7  4  8  2  8  4  5  5  4  5  3  6  10  1  1  10  10  8  3  4  7];
s = [16  2  14  17  14  4  10  8  16  9  5  2  7  6  3  17  8  16  3  16  2  10  15  5  4  1  4  3  7  11  15  9  17  8  4  16  14  6  12  2  4  9  17  7  2  17  14  12  10  14  14  5  16  13  6  2  13  14  11  14  6  14  11  9  13  17  7  8  5  4];
